; benchmark generated from python API
(set-info :status unknown)
(declare-fun syscall_stub_newfstatat_83_64 () (_ BitVec 64))
(declare-fun mem_c0000f45_79_992 () (_ BitVec 992))
(declare-fun mem_c0001010_98_32 () (_ BitVec 32))
(declare-fun mem_0_126_8 () (_ BitVec 8))
(declare-fun mem_1_377_128 () (_ BitVec 128))
(assert
 (let ((?x47 ((_ extract 31 0) syscall_stub_newfstatat_83_64)))
 (let (($x52 (bvule ?x47 (_ bv4294963200 32))))
 (not $x52))))
(assert
 (let ((?x3699 ((_ extract 891 891) mem_c0000f45_79_992)))
 (let (($x4297 (= (_ bv0 1) ?x3699)))
 (not $x4297))))
(assert
 (let ((?x2189 ((_ extract 900 900) mem_c0000f45_79_992)))
 (= (_ bv0 1) ?x2189)))
(assert
 (let ((?x8705 ((_ extract 888 888) mem_c0000f45_79_992)))
 (let (($x9102 (= (_ bv0 1) ?x8705)))
 (not $x9102))))
(assert
 (let ((?x3977 ((_ extract 583 576) mem_c0000f45_79_992)))
 (= (_ bv0 8) ?x3977)))
(assert
 (let ((?x935 ((_ extract 575 568) mem_c0000f45_79_992)))
 (= (_ bv0 8) ?x935)))
(assert
 (let ((?x4611 ((_ extract 567 560) mem_c0000f45_79_992)))
 (= (_ bv0 8) ?x4611)))
(assert
 (let ((?x3400 ((_ extract 559 552) mem_c0000f45_79_992)))
 (= (_ bv0 8) ?x3400)))
(assert
 (let ((?x3784 ((_ extract 551 544) mem_c0000f45_79_992)))
 (= (_ bv0 8) ?x3784)))
(assert
 (let ((?x3913 ((_ extract 543 536) mem_c0000f45_79_992)))
 (= (_ bv0 8) ?x3913)))
(assert
 (let ((?x4737 ((_ extract 535 528) mem_c0000f45_79_992)))
 (= (_ bv0 8) ?x4737)))
(assert
 (let ((?x4639 ((_ extract 527 520) mem_c0000f45_79_992)))
 (= (_ bv0 8) ?x4639)))
(assert
 (let ((?x2427 ((_ extract 775 768) mem_c0000f45_79_992)))
 (let ((?x2419 ((_ extract 767 760) mem_c0000f45_79_992)))
 (let ((?x2429 ((_ extract 759 752) mem_c0000f45_79_992)))
 (let ((?x2417 ((_ extract 751 744) mem_c0000f45_79_992)))
 (let ((?x2410 ((_ extract 743 736) mem_c0000f45_79_992)))
 (let ((?x2411 ((_ extract 735 728) mem_c0000f45_79_992)))
 (let ((?x4124 (concat (concat ((_ extract 719 712) mem_c0000f45_79_992) ((_ extract 727 720) mem_c0000f45_79_992)) ?x2411)))
 (let ((?x4642 (concat ?x4124 ?x2410)))
 (let ((?x3823 (concat (concat (concat (concat ?x4642 ?x2417) ?x2429) ?x2419) ?x2427)))
 (let ((?x28836 (bvadd (_ bv18446744073709551615 64) ?x3823)))
 (let ((?x13368 ((_ extract 63 63) ?x28836)))
 (let (($x12179 (= (_ bv1 1) ?x13368)))
 (not $x12179))))))))))))))
(assert
 (let ((?x2357 ((_ extract 815 808) mem_c0000f45_79_992)))
 (let ((?x2417 ((_ extract 751 744) mem_c0000f45_79_992)))
 (let (($x1690 (= ?x2417 ?x2357)))
 (let (($x3670 (not $x1690)))
 (let ((?x2362 ((_ extract 807 800) mem_c0000f45_79_992)))
 (let ((?x2410 ((_ extract 743 736) mem_c0000f45_79_992)))
 (let (($x1703 (= ?x2410 ?x2362)))
 (let (($x3664 (not $x1703)))
 (let ((?x2345 ((_ extract 783 776) mem_c0000f45_79_992)))
 (let ((?x2400 ((_ extract 719 712) mem_c0000f45_79_992)))
 (let (($x1701 (= ?x2400 ?x2345)))
 (let (($x3671 (not $x1701)))
 (let ((?x2363 ((_ extract 799 792) mem_c0000f45_79_992)))
 (let ((?x2411 ((_ extract 735 728) mem_c0000f45_79_992)))
 (let (($x1704 (= ?x2411 ?x2363)))
 (let (($x3672 (not $x1704)))
 (let ((?x2346 ((_ extract 791 784) mem_c0000f45_79_992)))
 (let ((?x2401 ((_ extract 727 720) mem_c0000f45_79_992)))
 (let (($x1693 (= ?x2401 ?x2346)))
 (let (($x4136 (not $x1693)))
 (let ((?x2364 ((_ extract 831 824) mem_c0000f45_79_992)))
 (let ((?x2419 ((_ extract 767 760) mem_c0000f45_79_992)))
 (let (($x1155 (= ?x2419 ?x2364)))
 (let (($x4137 (not $x1155)))
 (let ((?x2374 ((_ extract 839 832) mem_c0000f45_79_992)))
 (let ((?x2427 ((_ extract 775 768) mem_c0000f45_79_992)))
 (let (($x1152 (= ?x2427 ?x2374)))
 (let (($x4139 (not $x1152)))
 (let ((?x2349 ((_ extract 823 816) mem_c0000f45_79_992)))
 (let ((?x2429 ((_ extract 759 752) mem_c0000f45_79_992)))
 (let (($x1714 (= ?x2429 ?x2349)))
 (let (($x4539 (not $x1714)))
 (let (($x6038 (or $x4539 $x4139 $x4137 $x4136 $x3672 $x3671 $x3664 $x3670)))
 (let (($x9215 (not $x6038)))
 (let ((?x4533 (concat (concat (concat (concat (concat ?x2345 ?x2346) ?x2363) ?x2362) ?x2357) ?x2349)))
 (let ((?x4215 (concat ?x4533 ?x2364)))
 (let ((?x3812 (concat ?x4215 ?x2374)))
 (let ((?x3646 (bvmul (_ bv18446744073709551615 64) ?x3812)))
 (let ((?x3809 (concat (concat (concat (concat (concat ?x2400 ?x2401) ?x2411) ?x2410) ?x2417) ?x2429)))
 (let ((?x3823 (concat (concat ?x3809 ?x2419) ?x2427)))
 (let ((?x3827 (bvadd ?x3823 ?x3646)))
 (let ((?x2482 ((_ extract 63 63) ?x3827)))
 (let (($x2285 (= (_ bv1 1) ?x2482)))
 (or $x2285 $x9215)))))))))))))))))))))))))))))))))))))))))))))
(assert
 (let ((?x2411 ((_ extract 735 728) mem_c0000f45_79_992)))
 (let (($x7359 (= (_ bv0 8) ?x2411)))
 (let (($x7360 (not $x7359)))
 (let ((?x2410 ((_ extract 743 736) mem_c0000f45_79_992)))
 (let (($x7355 (= (_ bv0 8) ?x2410)))
 (let (($x7358 (not $x7355)))
 (let ((?x2429 ((_ extract 759 752) mem_c0000f45_79_992)))
 (let (($x10082 (= (_ bv0 8) ?x2429)))
 (let (($x10079 (not $x10082)))
 (let ((?x2417 ((_ extract 751 744) mem_c0000f45_79_992)))
 (let (($x10061 (= (_ bv0 8) ?x2417)))
 (let (($x10059 (not $x10061)))
 (let ((?x2419 ((_ extract 767 760) mem_c0000f45_79_992)))
 (let (($x10069 (= (_ bv0 8) ?x2419)))
 (let (($x10067 (not $x10069)))
 (let ((?x2427 ((_ extract 775 768) mem_c0000f45_79_992)))
 (let (($x99771 (= (_ bv1 8) ?x2427)))
 (let (($x99778 (not $x99771)))
 (let ((?x2400 ((_ extract 719 712) mem_c0000f45_79_992)))
 (let (($x43496 (= (_ bv0 8) ?x2400)))
 (let (($x60066 (not $x43496)))
 (let ((?x2401 ((_ extract 727 720) mem_c0000f45_79_992)))
 (let (($x43774 (= (_ bv0 8) ?x2401)))
 (let (($x19310 (not $x43774)))
 (let ((?x3809 (concat (concat (concat (concat (concat ?x2400 ?x2401) ?x2411) ?x2410) ?x2417) ?x2429)))
 (let ((?x3823 (concat (concat ?x3809 ?x2419) ?x2427)))
 (let ((?x28836 (bvadd (_ bv18446744073709551615 64) ?x3823)))
 (let ((?x468471 ((_ extract 63 9) ?x28836)))
 (let (($x470636 (= (_ bv0 55) ?x468471)))
 (let (($x288655 (not $x470636)))
 (let ((?x29628 ((_ extract 568 568) mem_c0000f45_79_992)))
 (let ((?x197285 (concat ?x29628 (_ bv0 8))))
 (let ((?x196531 (bvmul (_ bv511 9) ?x197285)))
 (let ((?x4203 ((_ extract 760 760) mem_c0000f45_79_992)))
 (let ((?x3607 (concat ?x4203 ?x2427)))
 (let ((?x49860 (bvadd (_ bv511 9) ?x3607)))
 (let ((?x44837 (bvadd ?x49860 ?x196531)))
 (let (($x44445 (bvule ?x44837 (_ bv398 9))))
 (let (($x43749 (not $x44445)))
 (or $x43749 $x288655 $x19310 $x60066 $x99778 $x10067 $x10059 $x10079 $x7358 $x7360)))))))))))))))))))))))))))))))))))))))))
(assert
 (= (_ bv0 32) mem_c0001010_98_32))
(assert
 (let (($x43695 (= (_ bv10 8) mem_0_126_8)))
 (not $x43695)))
(assert
 (let ((?x3977 ((_ extract 583 576) mem_c0000f45_79_992)))
 (let ((?x935 ((_ extract 575 568) mem_c0000f45_79_992)))
 (let ((?x4611 ((_ extract 567 560) mem_c0000f45_79_992)))
 (let ((?x3400 ((_ extract 559 552) mem_c0000f45_79_992)))
 (let ((?x3784 ((_ extract 551 544) mem_c0000f45_79_992)))
 (let ((?x3913 ((_ extract 543 536) mem_c0000f45_79_992)))
 (let ((?x12701 (concat (concat ((_ extract 527 520) mem_c0000f45_79_992) ((_ extract 535 528) mem_c0000f45_79_992)) ?x3913)))
 (let ((?x13258 (concat ?x12701 ?x3784)))
 (let ((?x13066 (concat (concat (concat (concat ?x13258 ?x3400) ?x4611) ?x935) ?x3977)))
 (let ((?x57164 (bvadd (_ bv1 64) ?x13066)))
 (= (_ bv1 64) ?x57164))))))))))))
(assert
 (let ((?x839711 ((_ extract 7 0) mem_1_377_128)))
 (let (($x839713 (= (_ bv10 8) ?x839711)))
 (let ((?x839770 (ite $x839713 (_ bv1 1) (_ bv0 1))))
 (let ((?x839701 ((_ extract 15 8) mem_1_377_128)))
 (let (($x839702 (= (_ bv10 8) ?x839701)))
 (let ((?x839769 (ite $x839702 (_ bv1 1) (_ bv0 1))))
 (let ((?x839698 ((_ extract 23 16) mem_1_377_128)))
 (let (($x839668 (= (_ bv10 8) ?x839698)))
 (let ((?x839768 (ite $x839668 (_ bv1 1) (_ bv0 1))))
 (let ((?x839662 ((_ extract 31 24) mem_1_377_128)))
 (let (($x839697 (= (_ bv10 8) ?x839662)))
 (let ((?x839733 (ite $x839697 (_ bv1 1) (_ bv0 1))))
 (let ((?x839688 ((_ extract 39 32) mem_1_377_128)))
 (let (($x839706 (= (_ bv10 8) ?x839688)))
 (let ((?x839755 (ite $x839706 (_ bv1 1) (_ bv0 1))))
 (let ((?x836590 ((_ extract 47 40) mem_1_377_128)))
 (let (($x839709 (= (_ bv10 8) ?x836590)))
 (let ((?x839736 (ite $x839709 (_ bv1 1) (_ bv0 1))))
 (let ((?x839699 ((_ extract 55 48) mem_1_377_128)))
 (let (($x795617 (= (_ bv10 8) ?x839699)))
 (let ((?x839758 (ite $x795617 (_ bv1 1) (_ bv0 1))))
 (let ((?x839654 ((_ extract 63 56) mem_1_377_128)))
 (let (($x839687 (= (_ bv10 8) ?x839654)))
 (let ((?x839761 (ite $x839687 (_ bv1 1) (_ bv0 1))))
 (let ((?x839655 ((_ extract 71 64) mem_1_377_128)))
 (let (($x839694 (= (_ bv10 8) ?x839655)))
 (let ((?x839748 (ite $x839694 (_ bv1 1) (_ bv0 1))))
 (let ((?x839785 ((_ extract 79 72) mem_1_377_128)))
 (let (($x839609 (= (_ bv10 8) ?x839785)))
 (let ((?x839764 (ite $x839609 (_ bv1 1) (_ bv0 1))))
 (let ((?x839686 ((_ extract 87 80) mem_1_377_128)))
 (let (($x839674 (= (_ bv10 8) ?x839686)))
 (let ((?x839739 (ite $x839674 (_ bv1 1) (_ bv0 1))))
 (let ((?x839629 ((_ extract 95 88) mem_1_377_128)))
 (let (($x839678 (= (_ bv10 8) ?x839629)))
 (let ((?x839730 (ite $x839678 (_ bv1 1) (_ bv0 1))))
 (let ((?x839822 ((_ extract 103 96) mem_1_377_128)))
 (let (($x837769 (= (_ bv10 8) ?x839822)))
 (let ((?x839742 (ite $x837769 (_ bv1 1) (_ bv0 1))))
 (let ((?x839696 ((_ extract 111 104) mem_1_377_128)))
 (let (($x839676 (= (_ bv10 8) ?x839696)))
 (let ((?x839745 (ite $x839676 (_ bv1 1) (_ bv0 1))))
 (let ((?x839692 ((_ extract 119 112) mem_1_377_128)))
 (let (($x839673 (= (_ bv10 8) ?x839692)))
 (let ((?x839752 (ite $x839673 (_ bv1 1) (_ bv0 1))))
 (let ((?x839672 ((_ extract 127 120) mem_1_377_128)))
 (let (($x839617 (= (_ bv10 8) ?x839672)))
 (let ((?x839728 (ite $x839617 (_ bv1 1) (_ bv0 1))))
 (let ((?x839775 (concat (concat (concat (concat (concat ?x839728 ?x839752) ?x839745) ?x839742) ?x839730) ?x839739)))
 (let ((?x839780 (concat (concat (concat (concat (concat ?x839775 ?x839764) ?x839748) ?x839761) ?x839758) ?x839736)))
 (let ((?x839787 (concat (concat (concat (concat (concat ?x839780 ?x839755) ?x839733) ?x839768) ?x839769) ?x839770)))
 (= (_ bv0 16) ?x839787)))))))))))))))))))))))))))))))))))))))))))))))))))))
(assert
 (let ((?x3977 ((_ extract 583 576) mem_c0000f45_79_992)))
 (let ((?x935 ((_ extract 575 568) mem_c0000f45_79_992)))
 (let ((?x4611 ((_ extract 567 560) mem_c0000f45_79_992)))
 (let ((?x3400 ((_ extract 559 552) mem_c0000f45_79_992)))
 (let ((?x3784 ((_ extract 551 544) mem_c0000f45_79_992)))
 (let ((?x3913 ((_ extract 543 536) mem_c0000f45_79_992)))
 (let ((?x12701 (concat (concat ((_ extract 527 520) mem_c0000f45_79_992) ((_ extract 535 528) mem_c0000f45_79_992)) ?x3913)))
 (let ((?x13258 (concat ?x12701 ?x3784)))
 (let ((?x13066 (concat (concat (concat (concat ?x13258 ?x3400) ?x4611) ?x935) ?x3977)))
 (let ((?x84029 (bvmul (_ bv18446744073709551615 64) ?x13066)))
 (let ((?x2427 ((_ extract 775 768) mem_c0000f45_79_992)))
 (let ((?x2419 ((_ extract 767 760) mem_c0000f45_79_992)))
 (let ((?x2429 ((_ extract 759 752) mem_c0000f45_79_992)))
 (let ((?x2417 ((_ extract 751 744) mem_c0000f45_79_992)))
 (let ((?x2410 ((_ extract 743 736) mem_c0000f45_79_992)))
 (let ((?x2411 ((_ extract 735 728) mem_c0000f45_79_992)))
 (let ((?x4124 (concat (concat ((_ extract 719 712) mem_c0000f45_79_992) ((_ extract 727 720) mem_c0000f45_79_992)) ?x2411)))
 (let ((?x4642 (concat ?x4124 ?x2410)))
 (let ((?x3823 (concat (concat (concat (concat ?x4642 ?x2417) ?x2429) ?x2419) ?x2427)))
 (let ((?x28836 (bvadd (_ bv18446744073709551615 64) ?x3823)))
 (let ((?x31280 (bvadd ?x28836 ?x84029)))
 (let ((?x29628 ((_ extract 568 568) mem_c0000f45_79_992)))
 (let ((?x30499 (concat ?x29628 ?x3977)))
 (let ((?x28310 (bvmul (_ bv511 9) ?x30499)))
 (let ((?x4203 ((_ extract 760 760) mem_c0000f45_79_992)))
 (let ((?x3607 (concat ?x4203 ?x2427)))
 (let ((?x49860 (bvadd (_ bv511 9) ?x3607)))
 (let ((?x196520 (bvadd ?x49860 ?x28310)))
 (let (($x196710 (bvule ?x196520 (_ bv398 9))))
 (let ((?x195923 ((_ extract 63 9) ?x31280)))
 (let (($x196315 (= (_ bv0 55) ?x195923)))
 (let (($x196093 (and $x196315 $x196710)))
 (let ((?x194439 (ite $x196093 ?x31280 (_ bv398 64))))
 (bvugt ?x194439 (_ bv16 64))))))))))))))))))))))))))))))))))))
(assert
 (let ((?x394716 ((_ extract 581 576) mem_c0000f45_79_992)))
 (let ((?x391559 (bvadd (_ bv1 6) ?x394716)))
 (let ((?x1799253 (concat (_ bv0 26) ?x391559)))
 (let ((?x1799677 (bvand ?x1799253 (_ bv15 32))))
 (let ((?x1801989 ((_ zero_extend 32) ?x1799677)))
 (let ((?x3977 ((_ extract 583 576) mem_c0000f45_79_992)))
 (let ((?x935 ((_ extract 575 568) mem_c0000f45_79_992)))
 (let ((?x4611 ((_ extract 567 560) mem_c0000f45_79_992)))
 (let ((?x3400 ((_ extract 559 552) mem_c0000f45_79_992)))
 (let ((?x3784 ((_ extract 551 544) mem_c0000f45_79_992)))
 (let ((?x3913 ((_ extract 543 536) mem_c0000f45_79_992)))
 (let ((?x12701 (concat (concat ((_ extract 527 520) mem_c0000f45_79_992) ((_ extract 535 528) mem_c0000f45_79_992)) ?x3913)))
 (let ((?x13258 (concat ?x12701 ?x3784)))
 (let ((?x13066 (concat (concat (concat (concat ?x13258 ?x3400) ?x4611) ?x935) ?x3977)))
 (let ((?x84029 (bvmul (_ bv18446744073709551615 64) ?x13066)))
 (let ((?x2427 ((_ extract 775 768) mem_c0000f45_79_992)))
 (let ((?x2419 ((_ extract 767 760) mem_c0000f45_79_992)))
 (let ((?x2429 ((_ extract 759 752) mem_c0000f45_79_992)))
 (let ((?x2417 ((_ extract 751 744) mem_c0000f45_79_992)))
 (let ((?x2410 ((_ extract 743 736) mem_c0000f45_79_992)))
 (let ((?x2411 ((_ extract 735 728) mem_c0000f45_79_992)))
 (let ((?x4124 (concat (concat ((_ extract 719 712) mem_c0000f45_79_992) ((_ extract 727 720) mem_c0000f45_79_992)) ?x2411)))
 (let ((?x4642 (concat ?x4124 ?x2410)))
 (let ((?x3823 (concat (concat (concat (concat ?x4642 ?x2417) ?x2429) ?x2419) ?x2427)))
 (let ((?x28836 (bvadd (_ bv18446744073709551615 64) ?x3823)))
 (let ((?x31280 (bvadd ?x28836 ?x84029)))
 (let ((?x29628 ((_ extract 568 568) mem_c0000f45_79_992)))
 (let ((?x30499 (concat ?x29628 ?x3977)))
 (let ((?x28310 (bvmul (_ bv511 9) ?x30499)))
 (let ((?x4203 ((_ extract 760 760) mem_c0000f45_79_992)))
 (let ((?x3607 (concat ?x4203 ?x2427)))
 (let ((?x49860 (bvadd (_ bv511 9) ?x3607)))
 (let ((?x196520 (bvadd ?x49860 ?x28310)))
 (let (($x196710 (bvule ?x196520 (_ bv398 9))))
 (let ((?x195923 ((_ extract 63 9) ?x31280)))
 (let (($x196315 (= (_ bv0 55) ?x195923)))
 (let (($x196093 (and $x196315 $x196710)))
 (let ((?x194439 (ite $x196093 ?x31280 (_ bv398 64))))
 (let ((?x1801530 (bvadd (bvadd (_ bv18446744073709551600 64) ?x194439) ?x1801989)))
 (bvule ?x1801530 (_ bv64 64))))))))))))))))))))))))))))))))))))))))))
(maximize mem_1_377_128)
(minimize mem_c0001010_98_32)
(maximize mem_c0000f45_79_992)
(minimize mem_c0000f45_79_992)
(minimize syscall_stub_newfstatat_83_64)
(minimize mem_1_377_128)
(maximize mem_0_126_8)
(minimize mem_0_126_8)
(maximize syscall_stub_newfstatat_83_64)
(maximize mem_c0001010_98_32)
(check-sat)
(get-objectives)
